RT is False
Default write of storage_offers_DA.csv just to have a file (but constraint should be inactive)
Reading model...
...model read.
creating competitive generators file...
...competitive generators recorded.
Loading data...
.. day-ahead data with real-time VRE data read.
Compiling instance...
...instance created.
Creating Offer Mitigation (model will solve as dispatch if TRUE)...
NOTE: storage offers will not be mitigated
...storage offer mitigation file created
Converting model to MPEC...
...converted
NOTE: initial MIP solve with only storage competitive to get feasible solution
Solving...

Welcome to IBM(R) ILOG(R) CPLEX(R) Interactive Optimizer 12.9.0.0
  with Simplex, Mixed Integer & Barrier Optimizers
5725-A06 5725-A29 5724-Y48 5724-Y49 5724-Y54 5724-Y55 5655-Y21
Copyright IBM Corp. 1988, 2019.  All Rights Reserved.

Type 'help' for a list of available commands.
Type 'help' followed by a command name for more
information on commands.

CPLEX> Logfile 'cplex.log' closed.
Logfile 'C:\Users\llavin\Desktop\test826\logs\tmp2awc25zz.cplex.log' open.
CPLEX> New value for parallel optimization mode: -1
CPLEX> New value for mixed integer optimality gap tolerance: 0.02
CPLEX> New value for integrality tolerance: 1e-12
CPLEX> New value for deterministic time limit in ticks: 65000
CPLEX> Problem 'C:\Users\llavin\Desktop\test826\logs\tmpie3kcfuh.pyomo.lp' read.
Read time = 0.20 sec. (13.64 ticks)
CPLEX> Problem name         : C:\Users\llavin\Desktop\test826\logs\tmpie3kcfuh.pyomo.lp
Objective sense      : Maximize
Variables            :   53815  [Nneg: 1,  Box: 22002,  Free: 4464,
                                 Binary: 27348]
Objective nonzeros   :    8980
Linear constraints   :  123235  [Less: 41356,  Greater: 59114,  Equal: 22765]
  Nonzeros           :  292605
  RHS nonzeros       :   67515

Variables            : Min LB: -5000.000        Max UB: 1000000.       
Objective nonzeros   : Min   : 0.2250000        Max   : 734.2667       
Linear constraints   :
  Nonzeros           : Min   : 0.2250000        Max   : 1000000.       
  RHS nonzeros       : Min   : 0.001000000      Max   : 1000000.       
CPLEX> CPXPARAM_Parallel                                -1
CPXPARAM_DetTimeLimit                            65000
CPXPARAM_MIP_Tolerances_MIPGap                   0.02
CPXPARAM_MIP_Tolerances_Integrality              9.9999999999999998e-13
Tried aggregator 3 times.
MIP Presolve eliminated 88647 rows and 18927 columns.
MIP Presolve added 3404 rows and 0 columns.
MIP Presolve modified 24932 coefficients.
Aggregator did 13041 substitutions.
Reduced MIP has 24951 rows, 21291 columns, and 71360 nonzeros.
Reduced MIP has 8416 binaries, 0 generals, 0 SOSs, and 0 indicators.
Presolve time = 0.27 sec. (173.06 ticks)
Probing fixed 401 vars, tightened 3848 bounds.
Probing time = 0.06 sec. (18.78 ticks)
Tried aggregator 2 times.
MIP Presolve eliminated 908 rows and 805 columns.
MIP Presolve modified 3035 coefficients.
Aggregator did 24 substitutions.
Reduced MIP has 24019 rows, 20462 columns, and 68662 nonzeros.
Reduced MIP has 8014 binaries, 0 generals, 0 SOSs, and 0 indicators.
Presolve time = 0.13 sec. (89.05 ticks)
Probing fixed 0 vars, tightened 374 bounds.
Probing time = 0.11 sec. (23.37 ticks)
Clique table members: 44999.
MIP emphasis: balance optimality and feasibility.
MIP search method: dynamic search.
Parallel mode: opportunistic, using up to 32 threads.
Root relaxation solution time = 0.36 sec. (627.73 ticks)

        Nodes                                         Cuts/
   Node  Left     Objective  IInf  Best Integer    Best Bound    ItCnt     Gap

      0     0     7928.7626   106                   7928.7626     5220         
*     0+    0                         7928.7626     7928.7626             0.00%
      0     0        cutoff           7928.7626     7928.7626     5220    0.00%
Elapsed time = 1.72 sec. (1537.34 ticks, tree = 0.01 MB, solutions = 1)

Root node processing (before b&c):
  Real time             =    1.72 sec. (1539.17 ticks)
Parallel b&c, 32 threads:
  Real time             =    0.00 sec. (0.00 ticks)
  Sync time (average)   =    0.00 sec.
  Wait time (average)   =    0.00 sec.
                          ------------
Total (root+branch&cut) =    1.72 sec. (1539.17 ticks)

Solution pool: 1 solution saved.

MIP - Integer optimal solution:  Objective =  7.9287626340e+03
Solution time =    1.75 sec.  Iterations = 5220  Nodes = 0
Deterministic time = 1539.32 ticks  (879.61 ticks/sec)

CPLEX> Incumbent solution written to file 'C:\Users\llavin\Desktop\test826\logs\tmpi8oagcbx.cplex.sol'.
CPLEX> NOTE: no warmstart specified for MIP iteration, default behavior is true
NOTE: resolving with all competitive generators using storage-only solution to warmstart
Solving...

Welcome to IBM(R) ILOG(R) CPLEX(R) Interactive Optimizer 12.9.0.0
  with Simplex, Mixed Integer & Barrier Optimizers
5725-A06 5725-A29 5724-Y48 5724-Y49 5724-Y54 5724-Y55 5655-Y21
Copyright IBM Corp. 1988, 2019.  All Rights Reserved.

Type 'help' for a list of available commands.
Type 'help' followed by a command name for more
information on commands.

CPLEX> Logfile 'cplex.log' closed.
Logfile 'C:\Users\llavin\Desktop\test826\logs\tmpwi9iua85.cplex.log' open.
CPLEX> New value for parallel optimization mode: -1
CPLEX> New value for mixed integer optimality gap tolerance: 0.02
CPLEX> New value for integrality tolerance: 1e-12
CPLEX> New value for deterministic time limit in ticks: 65000
CPLEX> Problem 'C:\Users\llavin\Desktop\test826\logs\tmp0mtvhs1r.pyomo.lp' read.
Read time = 0.20 sec. (13.66 ticks)
CPLEX> MIP start file 'C:\Users\llavin\Desktop\test826\logs\tmpbangx478.cplex.mst' read.
CPLEX> Problem name         : C:\Users\llavin\Desktop\test826\logs\tmp0mtvhs1r.pyomo.lp
Objective sense      : Maximize
Variables            :   54535  [Nneg: 1,  Box: 22722,  Free: 4464,
                                 Binary: 27348]
Objective nonzeros   :    9676
Linear constraints   :  123235  [Less: 41356,  Greater: 59114,  Equal: 22765]
  Nonzeros           :  292605
  RHS nonzeros       :   67515

Variables            : Min LB: -5000.000        Max UB: 1000000.       
Objective nonzeros   : Min   : 0.2250000        Max   : 722.0000       
Linear constraints   :
  Nonzeros           : Min   : 0.2250000        Max   : 1000000.       
  RHS nonzeros       : Min   : 0.001000000      Max   : 1000000.       
CPLEX> CPXPARAM_Parallel                                -1
CPXPARAM_DetTimeLimit                            65000
CPXPARAM_MIP_Tolerances_MIPGap                   0.02
CPXPARAM_MIP_Tolerances_Integrality              9.9999999999999998e-13
Warning:  No solution found from 1 MIP starts.
Retaining values of one MIP start for possible repair.
Tried aggregator 3 times.
MIP Presolve eliminated 88647 rows and 19647 columns.
MIP Presolve added 3404 rows and 0 columns.
MIP Presolve modified 24932 coefficients.
Aggregator did 13041 substitutions.
Reduced MIP has 24951 rows, 21291 columns, and 71360 nonzeros.
Reduced MIP has 8416 binaries, 0 generals, 0 SOSs, and 0 indicators.
Presolve time = 0.25 sec. (173.43 ticks)
Probing fixed 401 vars, tightened 3848 bounds.
Probing time = 0.06 sec. (18.78 ticks)
Tried aggregator 2 times.
MIP Presolve eliminated 908 rows and 805 columns.
MIP Presolve modified 3035 coefficients.
Aggregator did 24 substitutions.
Reduced MIP has 24019 rows, 20462 columns, and 68662 nonzeros.
Reduced MIP has 8014 binaries, 0 generals, 0 SOSs, and 0 indicators.
Presolve time = 0.13 sec. (89.05 ticks)
Probing fixed 0 vars, tightened 374 bounds.
Probing time = 0.13 sec. (23.37 ticks)
Clique table members: 44999.
MIP emphasis: balance optimality and feasibility.
MIP search method: dynamic search.
Parallel mode: opportunistic, using up to 32 threads.
Root relaxation solution time = 0.41 sec. (677.43 ticks)

        Nodes                                         Cuts/
   Node  Left     Objective  IInf  Best Integer    Best Bound    ItCnt     Gap

      0     0    98048.1608   214                  98048.1608     5802         
      0     0    94270.8895   121                   Cuts: 105     5965         
      0     0    94198.7002   118                    Cuts: 25     5986         
      0     0    94198.3737   121                     Cuts: 7     5996         
      0     0    94198.3466    97                     Cuts: 7     5999         
      0     0    94198.2926    98                     Cuts: 7     6001         
Repair heuristic found nothing.
      0     7    84722.9438    89                     Cuts: 8     6066         
Elapsed time = 6.19 sec. (3693.02 ticks, tree = 0.02 MB, solutions = 0)
    542   409    73580.8232    71                  92561.0469    11297         
    989   686    44679.4498    32                  92561.0469    14935         
   1549   886    infeasible                        92561.0469    17701         
   2172  1204  -326507.5488    32                  92561.0469    22671         
   2778  1563    infeasible                        92561.0469    31375         
   3467  2193    61949.9876    34                  90671.0942    47475         
   4129  2174   -25034.5815    12                  89599.6788    47428         
   4725  2905  -262166.4053    95                  89093.9232    71562         
   5312  3048    54060.0683    33                  89093.9232    79674         
   7776  3967    24185.2532    38                  84819.0663   127627         
Elapsed time = 22.86 sec. (6796.81 ticks, tree = 56.00 MB, solutions = 0)
*  8313+ 3230                        55504.4568    70342.0922            26.73%
   8313  3233        cutoff          55504.4568    63674.5703   191827   14.72%
   9223    40    58675.5077    48    55504.4568    63173.7240   193673   13.82%
  10688   679    57223.6800    31    55504.4568    63173.7240   200934   13.82%
  11888   715    60471.8481     9    55504.4568    63173.7240   201252   13.82%
  13554  1823    infeasible          55504.4568    62519.6570   210387   12.64%
  16595  2185    infeasible          55504.4568    62460.1054   214363   12.53%
  19309  2747    60457.2153     8    55504.4568    62460.1054   225812   12.53%
  20429  3296        cutoff          55504.4568    61434.9168   255342   10.68%
  21009    50    56696.8061    45    55563.2890    61434.9168   258710   10.57%
  22351    81    59835.6248    22    55563.2890    61434.9168   259430   10.57%
Elapsed time = 83.41 sec. (26031.09 ticks, tree = 1.56 MB, solutions = 2)
  24548   175    59574.9979    32    55563.2890    58249.2227   264121    4.83%
  26747   238        cutoff          55563.2890    58249.2227   280330    4.83%
  27516   282    56799.9982    23    55563.2890    58249.2227   292056    4.83%

Clique cuts applied:  2
Cover cuts applied:  17
Implied bound cuts applied:  1
Flow cuts applied:  88
Mixed integer rounding cuts applied:  18
Gomory fractional cuts applied:  11

Root node processing (before b&c):
  Real time             =    4.59 sec. (3652.76 ticks)
Parallel b&c, 32 threads:
  Real time             =   85.11 sec. (25961.51 ticks)
  Sync time (average)   =    6.52 sec.
  Wait time (average)   =    0.37 sec.
                          ------------
Total (root+branch&cut) =   89.70 sec. (29614.27 ticks)

Solution pool: 2 solutions saved.

MIP - Integer optimal, tolerance (0.02/1e-06):  Objective =  5.5563289035e+04
Current MIP best bound =  5.6659458573e+04 (gap = 1096.17, 1.97%)
Solution time =   89.72 sec.  Iterations = 302802  Nodes = 27614 (125)
Deterministic time = 29614.42 ticks  (330.08 ticks/sec)

CPLEX> Incumbent solution written to file 'C:\Users\llavin\Desktop\test826\logs\tmp8c3jaozm.cplex.sol'.
CPLEX> Exporting results... 
